NAME : CMT1X.466773.tour
COMMENT : Cost = 0_466773
COMMENT : Found by LKH [Keld Helsgaun] Thu Sep 14 15:45:28 2017
TYPE : TOUR
DIMENSION : 53
TOUR_SECTION
1
13
48
19
5
43
20
41
42
14
26
15
25
44
8
24
7
52
33
2
23
3
21
36
37
4
29
32
27
9
49
28
53
47
12
39
6
50
10
51
17
30
22
35
31
11
40
34
46
16
45
38
18
-1
EOF
